============================[ Problem Statistics ]=============================|                                                                             ||  Number of variables:          4242                                         ||  Number of clauses:           10103                                         ||  Parse time:                   0.49 s                                       ||                                                                             |============================[ Search Statistics ]==============================| Conflicts |          ORIGINAL         |          LEARNT          | Progress ||           |    Vars  Clauses Literals |    Limit  Clauses Lit/Cl |          |===============================================================================|       100 |    1591     6308   783429 |     2312      100     53 | 62.501 % ||       250 |    1591     6308   783429 |     2544      250     75 | 62.495 % |===============================================================================restarts              : 3conflicts             : 276            (368 /sec)decisions             : 542            (0.00 % random) (723 /sec)propagations          : 11805          (15740 /sec)conflict literals     : 21371          (94.81 % deleted)CPU time              : 0.75 sSATISFIABLE